
  22   10
  10   10   10   10   10   10   10   10   10   10

   0   0   0   0   0   0   0   0   0   0   0   7 2 4 5 9 10 11 21 
  10   0   0   0   0   0   0   0  10   0   0   2 7 3 
   7  10   0   0   0   0   0   0   0   0   0   2 20 6 
   8   0   0   0   0  10   0   0   0   0   0   4 18 17 13 8 
   5   0   0  10   0   0   0   0   0   0   0   3 14 13 8 
   2   0   0   0   0   0   0   0   0   0  10   3 18 17 8 
  10   0   0   0  10   0   0   0   0   0   0   2 19 8 
  10   0   0   0   0   0   0  10   0   0   0   2 16 12 
   6  10   0   0   0   0   0   0   0   0   0   2 19 15 
   2   0   0   0   0  10   0   0   0   0   0   2 16 15 
   8   0   0   0   0   0   0   0   0  10   0   2 16 15 
   6   0  10   0   0   0   0   0   0   0   0   1 15 
   7   0   0   0   0   0  10   0   0   0   0   1 16 
   6   0   0  10   0   0   0   0   0   0   0   1 17 
   9   0   0   0   0  10   0   0   0   0   0   1 22
   9   0   0   0   0  10   0   0   0   0   0   1 22
   9   0   0   0   0   0   0   0  10   0   0   1 22
   2   0   0   0  10   0   0   0   0   0   0   1 22
   9   0   0   0   0   0   0   0  10   0   0   1 22
   8   0   0   0   0   0  10   0   0   0   0   1 22
   4   0   0  10   0   0   0   0   0   0   0   1 22
   0   0   0   0   0   0   0   0   0   0   0   0 
